<number of tasks>
89

<cycle time>
13

<task times>
1 1
2 2
3 3
4 4
5 5
6 6
7 7
8 8
9 9
10 10
11 1
12 2
13 3
14 4
15 5
16 6
17 7
18 8
19 9
20 10
21 1
22 2
23 3
24 4
25 5
26 6
27 7
28 8
29 9
30 10
31 1
32 2
33 3
34 4
35 5
36 6
37 7
38 8
39 9
40 10
41 1
42 2
43 3
44 4
45 5
46 6
47 7
48 8
49 9
50 10
51 1
52 2
53 3
54 4
55 5
56 6
57 7
58 8
59 9
60 10
61 1
62 2
63 3
64 4
65 5
66 6
67 7
68 8
69 9
70 10
71 1
72 2
73 3
74 4
75 5
76 6
77 7
78 8
79 9
80 10
81 1
82 2
83 3
84 4
85 5
86 6
87 7
88 8
89 9

<precedence relations>
1,2
2,3
3,4
4,5
4,6
4,7
4,8
4,9
5,10
6,11
7,12
8,18
9,18
10,14
11,12
12,13
13,14
14,15
14,16
15,17
16,54
17,18
18,19
18,20
19,22
20,21
20,28
21,54
22,23
23,24
24,25
25,26
25,27
25,29
26,37
27,33
28,29
29,31
30,54
31,32
32,33
33,34
34,35
35,36
35,37
36,38
37,38
38,39
39,40
39,41
39,42
39,43
40,44
41,53
42,53
43,45
44,52
45,46
46,47
47,48
47,49
49,50
50,51
51,52
52,53
53,68
53,69
53,70
53,71
54,55
55,56
56,57
57,58
57,59
57,60
57,61
57,62
57,63
57,64
57,65
57,66
58,67
59,67
60,67
61,67
62,67
63,67
64,67
65,67
66,67
67,73
68,72
69,72
70,72
71,73
72,78
72,80
73,74
74,75
74,76
75,77
76,81
77,78
78,79
79,81
80,81
81,82
81,84
81,85
82,83
83,86
84,86
85,86
86,87
87,88
87,89

<setup times forward>
2,3:2
3,30:2
4,6:2
4,7:2
4,8:3
4,9:1
4,30:2
5,6:2
5,7:2
5,8:3
5,9:1
5,10:1
5,11:1
5,12:1
5,13:1
5,30:2
6,5:2
6,8:1
6,9:1
6,10:1
6,11:1
7,5:2
7,8:1
7,9:1
7,10:1
7,11:1
7,12:1
8,5:3
8,6:1
8,7:1
8,9:2
8,10:2
8,11:2
8,12:2
8,13:2
8,15:1
8,16:1
8,17:1
8,30:1
9,5:1
9,6:1
9,7:1
9,8:2
9,14:2
9,15:1
9,16:3
9,17:1
9,18:2
9,30:1
10,6:1
10,7:1
10,8:2
10,14:2
10,30:1
11,5:1
11,7:1
11,8:2
11,30:1
12,5:1
12,8:2
12,30:1
13,5:1
13,8:2
13,14:2
13,30:1
14,9:2
14,15:1
14,16:1
14,30:1
15,8:1
15,9:1
15,16:2
16,8:1
16,9:3
16,15:2
16,17:2
16,18:1
16,19:2
16,20:4
16,21:4
16,22:2
16,25:2
16,26:4
16,27:4
16,28:2
16,29:3
16,30:2
16,31:4
16,35:4
16,36:2
16,37:2
16,38:3
16,39:4
16,40:4
16,41:2
16,42:2
16,43:4
16,44:2
16,45:4
16,46:1
16,47:1
16,49:2
16,54:3
16,68:4
16,69:2
16,72:4
16,80:4
17,8:1
17,9:1
17,16:2
17,18:1
18,16:1
18,19:1
18,20:3
18,30:1
19,16:2
19,20:2
19,21:2
19,54:1
19,55:2
19,56:2
19,57:2
19,58:2
19,59:2
19,61:2
19,62:2
19,63:2
19,64:2
19,65:1
19,66:1
19,67:1
20,16:4
20,19:2
20,22:2
20,23:4
20,24:4
20,25:2
20,28:2
20,30:2
21,16:4
21,19:2
21,22:2
21,23:4
21,24:4
21,25:2
21,28:2
21,29:1
21,30:2
21,32:4
21,33:4
21,34:4
21,36:2
21,37:2
21,38:1
21,41:2
21,42:2
21,44:2
21,46:3
21,47:3
21,48:4
21,49:2
21,50:4
21,51:4
21,52:4
21,53:4
21,54:1
21,69:2
21,70:4
21,71:4
22,16:2
22,20:2
22,21:2
22,23:2
22,54:1
22,55:2
22,56:2
22,57:2
22,58:2
22,59:2
22,61:2
22,62:2
22,63:2
22,64:2
22,65:1
22,66:1
22,67:1
23,20:4
23,21:4
23,28:2
23,30:2
23,54:3
23,55:4
23,58:4
23,60:2
23,61:4
23,62:4
23,63:4
23,65:3
23,66:3
23,67:3
24,20:4
24,21:4
24,25:2
24,28:2
24,30:2
24,54:3
24,55:4
24,58:4
24,60:2
24,61:4
24,62:4
24,63:4
24,65:3
24,66:3
24,67:3
25,16:2
25,20:2
25,21:2
25,26:2
25,27:2
25,29:1
25,54:1
25,55:2
25,56:2
25,57:2
25,58:2
25,59:2
25,61:2
25,62:2
25,63:2
25,64:2
25,65:1
25,66:1
25,67:1
26,16:4
26,28:2
26,29:1
26,30:2
26,32:4
26,33:4
26,34:4
26,36:2
26,37:2
26,54:1
26,56:4
26,57:4
26,59:4
26,60:2
26,64:4
26,65:1
26,66:1
26,67:1
27,16:4
27,28:2
27,29:1
27,30:2
27,32:4
27,33:4
27,54:1
27,56:4
27,57:4
27,59:4
27,60:2
27,64:4
27,65:1
27,66:1
27,67:1
28,16:2
28,21:2
28,23:2
28,24:2
28,26:2
28,27:2
28,29:1
28,54:1
28,55:2
28,56:2
28,57:2
28,58:2
28,59:2
28,61:2
28,62:2
28,63:2
28,64:2
28,65:1
28,66:1
28,67:1
29,16:3
29,21:1
29,26:1
29,27:1
29,30:1
29,31:1
29,55:1
29,56:3
29,57:3
29,58:1
29,59:3
29,60:1
29,61:1
29,62:1
29,63:1
29,64:3
30,3:2
30,4:2
30,5:2
30,8:1
30,9:1
30,10:1
30,11:1
30,12:1
30,13:1
30,14:1
30,16:2
30,18:1
30,20:2
30,21:2
30,23:2
30,24:2
30,26:2
30,27:2
30,29:1
30,31:2
30,32:2
30,33:2
30,34:2
30,35:2
30,38:1
30,39:2
30,40:2
30,43:2
30,45:2
30,46:1
30,47:1
30,48:2
30,50:2
30,51:2
30,52:2
30,53:2
30,54:1
30,68:2
30,70:2
30,71:2
30,72:2
30,80:2
31,16:4
31,30:2
31,32:4
31,54:1
31,56:4
31,57:4
31,59:4
31,60:2
31,64:4
31,65:1
31,66:1
31,67:1
32,21:4
32,26:4
32,27:4
32,30:2
32,54:3
32,55:4
32,58:4
32,60:2
32,61:4
32,62:4
32,63:4
32,65:3
32,66:3
32,67:3
33,21:4
33,26:4
33,30:2
33,54:3
33,55:4
33,58:4
33,60:2
33,61:4
33,62:4
33,63:4
33,65:3
33,66:3
33,67:3
34,21:4
34,26:4
34,30:2
34,35:4
34,54:3
34,55:4
34,58:4
34,60:2
34,61:4
34,62:4
34,63:4
34,65:3
34,66:3
34,67:3
35,16:4
35,30:2
35,36:2
35,37:2
35,54:1
35,56:4
35,57:4
35,59:4
35,60:2
35,64:4
35,65:1
35,66:1
35,67:1
36,16:2
36,21:2
36,26:2
36,38:1
36,54:1
36,55:2
36,56:2
36,57:2
36,58:2
36,59:2
36,61:2
36,62:2
36,63:2
36,64:2
36,65:1
36,66:1
36,67:1
37,16:2
37,21:2
37,38:1
37,54:1
37,55:2
37,56:2
37,57:2
37,58:2
37,59:2
37,61:2
37,62:2
37,63:2
37,64:2
37,65:1
37,66:1
37,67:1
38,16:3
38,21:1
38,30:1
38,39:1
38,55:1
38,56:3
38,57:3
38,58:1
38,59:3
38,60:1
38,61:1
38,62:1
38,63:1
38,64:3
39,16:4
39,30:2
39,41:2
39,42:2
39,54:1
39,56:4
39,57:4
39,59:4
39,60:2
39,64:4
39,65:1
39,66:1
39,67:1
40,16:4
40,30:2
40,41:2
40,42:2
40,44:2
40,46:3
40,47:3
40,48:4
40,49:2
40,50:4
40,51:4
40,54:1
40,56:4
40,57:4
40,59:4
40,60:2
40,64:4
40,65:1
40,66:1
40,67:1
41,16:2
41,21:2
41,40:2
41,43:2
41,45:2
41,46:1
41,47:1
41,48:2
41,50:2
41,51:2
41,52:2
41,53:2
41,54:1
41,55:2
41,56:2
41,57:2
41,58:2
41,59:2
41,61:2
41,62:2
41,63:2
41,64:2
41,65:1
41,66:1
41,67:1
42,16:2
42,21:2
42,40:2
42,43:2
42,45:2
42,46:1
42,47:1
42,48:2
42,50:2
42,51:2
42,52:2
42,53:2
42,54:1
42,55:2
42,56:2
42,57:2
42,58:2
42,59:2
42,61:2
42,62:2
42,63:2
42,64:2
42,65:1
42,66:1
42,67:1
43,16:4
43,30:2
43,41:2
43,42:2
43,44:2
43,54:1
43,56:4
43,57:4
43,59:4
43,60:2
43,64:4
43,65:1
43,66:1
43,67:1
44,16:2
44,21:2
44,43:2
44,45:2
44,46:1
44,47:1
44,48:2
44,50:2
44,51:2
44,52:2
44,54:1
44,55:2
44,56:2
44,57:2
44,58:2
44,59:2
44,61:2
44,62:2
44,63:2
44,64:2
44,65:1
44,66:1
44,67:1
45,16:4
45,30:2
45,41:2
45,42:2
45,44:2
45,46:3
45,54:1
45,56:4
45,57:4
45,59:4
45,60:2
45,64:4
45,65:1
45,66:1
45,67:1
46,16:1
46,21:3
46,30:1
46,40:3
46,41:1
46,42:1
46,44:1
46,54:2
46,55:3
46,56:1
46,57:1
46,58:3
46,59:1
46,60:1
46,61:3
46,62:3
46,63:3
46,64:1
46,65:2
46,66:2
46,67:2
47,16:1
47,21:3
47,30:1
47,40:3
47,41:1
47,42:1
47,44:1
47,48:1
47,49:1
47,54:2
47,55:3
47,56:1
47,57:1
47,58:3
47,59:1
47,60:1
47,61:3
47,62:3
47,63:3
47,64:1
47,65:2
47,66:2
47,67:2
48,21:4
48,30:2
48,40:4
48,41:2
48,42:2
48,44:2
48,49:2
48,54:3
48,55:4
48,58:4
48,60:2
48,61:4
48,62:4
48,63:4
48,65:3
48,66:3
48,67:3
48,68:4
48,69:2
48,72:4
48,74:2
48,75:4
48,76:2
48,77:2
48,78:2
48,80:4
48,81:3
48,82:3
48,83:3
48,84:3
48,86:4
48,87:4
48,88:2
48,89:1
49,16:2
49,21:2
49,40:2
49,48:2
49,50:2
49,54:1
49,55:2
49,56:2
49,57:2
49,58:2
49,59:2
49,61:2
49,62:2
49,63:2
49,64:2
49,65:1
49,66:1
49,67:1
50,21:4
50,30:2
50,40:4
50,41:2
50,42:2
50,44:2
50,54:3
50,55:4
50,58:4
50,60:2
50,61:4
50,62:4
50,63:4
50,65:3
50,66:3
50,67:3
51,21:4
51,30:2
51,40:4
51,41:2
51,42:2
51,44:2
51,54:3
51,55:4
51,58:4
51,60:2
51,61:4
51,62:4
51,63:4
51,65:3
51,66:3
51,67:3
52,21:4
52,30:2
52,41:2
52,42:2
52,54:3
52,55:4
52,58:4
52,60:2
52,61:4
52,62:4
52,63:4
52,65:3
52,66:3
52,67:3
53,21:4
53,30:2
53,54:3
53,55:4
53,58:4
53,60:2
53,61:4
53,62:4
53,63:4
53,65:3
53,66:3
53,67:3
53,68:4
53,69:2
54,19:1
54,22:1
54,23:3
54,24:3
54,25:1
54,26:1
54,27:1
54,28:1
54,31:1
54,32:3
54,33:3
54,34:3
54,35:1
54,36:1
54,37:1
54,39:1
54,40:1
54,41:1
54,42:1
54,43:1
54,44:1
54,45:1
54,46:2
54,47:2
54,48:3
54,49:1
54,50:3
54,51:3
54,52:3
54,53:3
54,55:1
54,68:1
54,69:1
54,70:3
54,71:3
54,72:1
54,80:1
55,19:2
55,22:2
55,23:4
55,24:4
55,25:2
55,28:2
55,29:1
55,32:4
55,33:4
55,34:4
55,36:2
55,37:2
55,38:1
55,41:2
55,42:2
55,44:2
55,46:3
55,47:3
55,48:4
55,49:2
55,50:4
55,51:4
55,52:4
55,53:4
55,56:4
55,69:2
55,70:4
55,71:4
56,19:2
56,22:2
56,25:2
56,26:4
56,27:4
56,28:2
56,29:3
56,31:4
56,35:4
56,36:2
56,37:2
56,38:3
56,39:4
56,40:4
56,41:2
56,42:2
56,43:4
56,44:2
56,45:4
56,46:1
56,47:1
56,49:2
56,68:4
56,69:2
56,72:4
56,80:4
57,19:2
57,22:2
57,25:2
57,26:4
57,27:4
57,28:2
57,29:3
57,31:4
57,35:4
57,36:2
57,37:2
57,38:3
57,39:4
57,40:4
57,41:2
57,42:2
57,43:4
57,44:2
57,45:4
57,46:1
57,47:1
57,49:2
57,58:4
57,60:2
57,61:4
57,62:4
57,63:4
57,65:3
57,66:3
57,68:4
57,69:2
57,72:4
57,80:4
58,19:2
58,22:2
58,23:4
58,24:4
58,25:2
58,28:2
58,29:1
58,32:4
58,33:4
58,34:4
58,36:2
58,37:2
58,38:1
58,41:2
58,42:2
58,44:2
58,46:3
58,47:3
58,48:4
58,49:2
58,50:4
58,51:4
58,52:4
58,53:4
58,59:4
58,60:2
58,64:4
58,65:1
58,66:1
58,67:1
58,69:2
58,70:4
58,71:4
59,19:2
59,22:2
59,25:2
59,26:4
59,27:4
59,28:2
59,29:3
59,31:4
59,35:4
59,36:2
59,37:2
59,38:3
59,39:4
59,40:4
59,41:2
59,42:2
59,43:4
59,44:2
59,45:4
59,46:1
59,47:1
59,49:2
59,58:4
59,60:2
59,61:4
59,62:4
59,63:4
59,65:3
59,66:3
59,67:3
59,68:4
59,69:2
59,72:4
59,80:4
60,23:2
60,24:2
60,26:2
60,27:2
60,29:1
60,31:2
60,32:2
60,33:2
60,34:2
60,35:2
60,38:1
60,39:2
60,40:2
60,43:2
60,45:2
60,46:1
60,47:1
60,48:2
60,50:2
60,51:2
60,52:2
60,53:2
60,58:2
60,59:2
60,61:2
60,62:2
60,63:2
60,64:2
60,65:1
60,66:1
60,67:1
60,68:2
60,70:2
60,71:2
60,72:2
60,80:2
61,19:2
61,22:2
61,23:4
61,24:4
61,25:2
61,28:2
61,29:1
61,32:4
61,33:4
61,34:4
61,36:2
61,37:2
61,38:1
61,41:2
61,42:2
61,44:2
61,46:3
61,47:3
61,48:4
61,49:2
61,50:4
61,51:4
61,52:4
61,53:4
61,59:4
61,60:2
61,64:4
61,65:1
61,66:1
61,67:1
61,69:2
61,70:4
61,71:4
62,19:2
62,22:2
62,23:4
62,24:4
62,25:2
62,28:2
62,29:1
62,32:4
62,33:4
62,34:4
62,36:2
62,37:2
62,38:1
62,41:2
62,42:2
62,44:2
62,46:3
62,47:3
62,48:4
62,49:2
62,50:4
62,51:4
62,52:4
62,53:4
62,59:4
62,60:2
62,64:4
62,65:1
62,66:1
62,67:1
62,69:2
62,70:4
62,71:4
63,19:2
63,22:2
63,23:4
63,24:4
63,25:2
63,28:2
63,29:1
63,32:4
63,33:4
63,34:4
63,36:2
63,37:2
63,38:1
63,41:2
63,42:2
63,44:2
63,46:3
63,47:3
63,48:4
63,49:2
63,50:4
63,51:4
63,52:4
63,53:4
63,59:4
63,60:2
63,64:4
63,65:1
63,66:1
63,67:1
63,69:2
63,70:4
63,71:4
64,19:2
64,22:2
64,25:2
64,26:4
64,27:4
64,28:2
64,29:3
64,31:4
64,35:4
64,36:2
64,37:2
64,38:3
64,39:4
64,40:4
64,41:2
64,42:2
64,43:4
64,44:2
64,45:4
64,46:1
64,47:1
64,49:2
64,58:4
64,60:2
64,61:4
64,62:4
64,63:4
64,65:3
64,66:3
64,67:3
64,68:4
64,69:2
64,72:4
64,80:4
65,19:1
65,22:1
65,23:3
65,24:3
65,25:1
65,26:1
65,27:1
65,28:1
65,31:1
65,32:3
65,33:3
65,34:3
65,35:1
65,36:1
65,37:1
65,39:1
65,40:1
65,41:1
65,42:1
65,43:1
65,44:1
65,45:1
65,46:2
65,47:2
65,48:3
65,49:1
65,50:3
65,51:3
65,52:3
65,53:3
65,58:1
65,59:3
65,60:1
65,61:1
65,62:1
65,63:1
65,64:3
65,68:1
65,69:1
65,70:3
65,71:3
65,72:1
65,80:1
66,19:1
66,22:1
66,23:3
66,24:3
66,25:1
66,26:1
66,27:1
66,28:1
66,31:1
66,32:3
66,33:3
66,34:3
66,35:1
66,36:1
66,37:1
66,39:1
66,40:1
66,41:1
66,42:1
66,43:1
66,44:1
66,45:1
66,46:2
66,47:2
66,48:3
66,49:1
66,50:3
66,51:3
66,52:3
66,53:3
66,58:1
66,59:3
66,60:1
66,61:1
66,62:1
66,63:1
66,64:3
66,68:1
66,69:1
66,70:3
66,71:3
66,72:1
66,80:1
67,19:1
67,22:1
67,23:3
67,24:3
67,25:1
67,26:1
67,27:1
67,28:1
67,31:1
67,32:3
67,33:3
67,34:3
67,35:1
67,36:1
67,37:1
67,39:1
67,40:1
67,41:1
67,42:1
67,43:1
67,44:1
67,45:1
67,46:2
67,47:2
67,48:3
67,49:1
67,50:3
67,51:3
67,52:3
67,53:3
67,68:1
67,69:1
67,70:3
67,71:3
67,72:1
67,73:3
67,80:1
68,16:4
68,30:2
68,48:4
68,54:1
68,56:4
68,57:4
68,59:4
68,60:2
68,64:4
68,65:1
68,66:1
68,67:1
68,69:2
68,70:4
68,71:4
68,73:4
68,74:2
68,76:2
68,77:2
69,16:2
69,21:2
69,48:2
69,54:1
69,55:2
69,56:2
69,57:2
69,58:2
69,59:2
69,61:2
69,62:2
69,63:2
69,64:2
69,65:1
69,66:1
69,67:1
69,68:2
69,70:2
69,71:2
69,72:2
69,73:2
69,75:2
70,21:4
70,30:2
70,54:3
70,55:4
70,58:4
70,60:2
70,61:4
70,62:4
70,63:4
70,65:3
70,66:3
70,67:3
70,68:4
70,69:2
70,72:4
70,74:2
70,75:4
70,76:2
70,77:2
71,21:4
71,30:2
71,54:3
71,55:4
71,58:4
71,60:2
71,61:4
71,62:4
71,63:4
71,65:3
71,66:3
71,67:3
71,68:4
71,69:2
71,72:4
71,80:4
72,16:4
72,30:2
72,48:4
72,54:1
72,56:4
72,57:4
72,59:4
72,60:2
72,64:4
72,65:1
72,66:1
72,67:1
72,71:4
72,73:4
72,74:2
72,76:2
72,77:2
72,78:2
73,68:4
73,69:2
73,72:4
73,74:2
73,80:4
74,48:2
74,68:2
74,70:2
74,72:2
74,75:2
74,80:2
75,48:4
75,69:2
75,70:4
75,76:2
75,77:2
76,48:2
76,68:2
76,70:2
76,72:2
76,75:2
76,79:2
76,80:2
76,81:1
77,48:2
77,68:2
77,70:2
77,72:2
77,80:2
78,48:2
78,79:2
78,80:2
79,76:2
79,80:4
79,81:3
80,16:4
80,30:2
80,48:4
80,54:1
80,56:4
80,57:4
80,59:4
80,60:2
80,64:4
80,65:1
80,66:1
80,67:1
80,71:4
80,73:4
80,74:2
80,76:2
80,77:2
80,78:2
80,79:4
80,81:1
81,48:3
81,85:3
82,48:3
82,85:3
83,48:3
83,85:3
83,86:1
84,48:3
84,85:3
84,86:1
85,82:3
85,83:3
85,84:3
85,86:4
86,48:4
87,48:4
87,88:2
87,89:3
88,48:2
88,89:1
89,48:1
89,88:1

<setup times backward>
3,1:2
3,2:2
3,30:2
4,1:2
4,2:2
4,30:2
5,1:2
5,2:2
5,6:2
5,7:2
5,8:3
5,9:1
5,11:1
5,12:1
5,13:1
5,30:2
6,8:1
7,8:1
8,16:1
9,1:1
9,2:1
9,6:1
9,7:1
9,8:2
9,14:2
9,15:1
9,16:3
9,17:1
9,30:1
10,1:1
10,2:1
10,6:1
10,7:1
10,8:2
10,30:1
11,1:1
11,2:1
11,6:1
11,7:1
11,8:2
11,30:1
12,1:1
12,2:1
12,6:1
12,7:1
12,8:2
12,30:1
13,1:1
13,2:1
13,6:1
13,7:1
13,8:2
13,30:1
15,8:1
15,14:1
15,16:2
17,8:1
17,14:1
17,16:2
18,16:1
19,8:1
19,14:1
19,16:2
19,18:1
19,56:2
19,57:2
19,59:2
19,64:2
20,1:2
20,2:2
20,6:2
20,7:2
20,8:3
20,9:1
20,10:1
20,11:1
20,12:1
20,13:1
20,14:3
20,15:2
20,16:4
20,17:2
20,18:3
20,19:2
20,22:2
20,23:4
20,24:4
20,25:2
20,30:2
21,1:2
21,2:2
21,6:2
21,7:2
21,8:3
21,9:1
21,10:1
21,11:1
21,12:1
21,13:1
21,14:3
21,15:2
21,16:4
21,17:2
21,18:3
21,19:2
21,22:2
21,23:4
21,24:4
21,25:2
21,28:2
21,29:1
21,30:2
21,32:4
21,33:4
21,34:4
21,36:2
21,37:2
21,38:1
21,41:2
21,42:2
21,44:2
21,46:3
21,47:3
21,48:4
21,49:2
21,50:4
21,51:4
21,52:4
21,53:4
21,69:2
21,70:4
21,71:4
22,8:1
22,14:1
22,16:2
22,18:1
22,56:2
22,57:2
22,59:2
22,64:2
25,8:1
25,14:1
25,16:2
25,18:1
25,23:2
25,24:2
25,56:2
25,57:2
25,59:2
25,64:2
26,1:2
26,2:2
26,6:2
26,7:2
26,8:3
26,9:1
26,10:1
26,11:1
26,12:1
26,13:1
26,14:3
26,15:2
26,16:4
26,17:2
26,18:3
26,19:2
26,22:2
26,23:4
26,24:4
26,25:2
26,28:2
26,29:1
26,30:2
26,32:4
26,33:4
26,34:4
26,36:2
26,54:1
26,56:4
26,57:4
26,59:4
26,60:2
26,64:4
26,65:1
26,66:1
26,67:1
27,1:2
27,2:2
27,6:2
27,7:2
27,8:3
27,9:1
27,10:1
27,11:1
27,12:1
27,13:1
27,14:3
27,15:2
27,16:4
27,17:2
27,18:3
27,19:2
27,22:2
27,23:4
27,24:4
27,25:2
27,28:2
27,29:1
27,30:2
27,32:4
27,54:1
27,56:4
27,57:4
27,59:4
27,60:2
27,64:4
27,65:1
27,66:1
27,67:1
28,8:1
28,14:1
28,16:2
28,18:1
28,23:2
28,24:2
28,56:2
28,57:2
28,59:2
28,64:2
29,1:1
29,2:1
29,6:1
29,7:1
29,8:2
29,14:2
29,15:1
29,16:3
29,17:1
29,18:2
29,19:1
29,22:1
29,23:3
29,24:3
29,25:1
29,28:1
29,30:1
29,56:3
29,57:3
29,59:3
29,60:1
29,64:3
30,8:1
30,14:1
30,16:2
30,18:1
30,23:2
30,24:2
30,32:2
30,33:2
30,34:2
30,46:1
30,47:1
30,48:2
30,50:2
30,51:2
30,52:2
30,53:2
30,70:2
30,71:2
31,1:2
31,2:2
31,6:2
31,7:2
31,8:3
31,9:1
31,10:1
31,11:1
31,12:1
31,13:1
31,14:3
31,15:2
31,16:4
31,17:2
31,18:3
31,19:2
31,22:2
31,23:4
31,24:4
31,25:2
31,28:2
31,29:1
31,30:2
31,54:1
31,56:4
31,57:4
31,59:4
31,60:2
31,64:4
31,65:1
31,66:1
31,67:1
35,1:2
35,2:2
35,6:2
35,7:2
35,8:3
35,9:1
35,10:1
35,11:1
35,12:1
35,13:1
35,14:3
35,15:2
35,16:4
35,17:2
35,18:3
35,19:2
35,22:2
35,23:4
35,24:4
35,25:2
35,28:2
35,29:1
35,30:2
35,32:4
35,33:4
35,34:4
35,54:1
35,56:4
35,57:4
35,59:4
35,60:2
35,64:4
35,65:1
35,66:1
35,67:1
36,8:1
36,14:1
36,16:2
36,18:1
36,23:2
36,24:2
36,32:2
36,33:2
36,34:2
36,56:2
36,57:2
36,59:2
36,64:2
37,8:1
37,14:1
37,16:2
37,18:1
37,23:2
37,24:2
37,32:2
37,33:2
37,34:2
37,56:2
37,57:2
37,59:2
37,64:2
38,1:1
38,2:1
38,6:1
38,7:1
38,8:2
38,14:2
38,15:1
38,16:3
38,17:1
38,18:2
38,19:1
38,22:1
38,23:3
38,24:3
38,25:1
38,28:1
38,30:1
38,32:3
38,33:3
38,34:3
38,36:1
38,37:1
38,56:3
38,57:3
38,59:3
38,60:1
38,64:3
39,1:2
39,2:2
39,6:2
39,7:2
39,8:3
39,9:1
39,10:1
39,11:1
39,12:1
39,13:1
39,14:3
39,15:2
39,16:4
39,17:2
39,18:3
39,19:2
39,22:2
39,23:4
39,24:4
39,25:2
39,28:2
39,29:1
39,30:2
39,32:4
39,33:4
39,34:4
39,36:2
39,37:2
39,38:1
39,54:1
39,56:4
39,57:4
39,59:4
39,60:2
39,64:4
39,65:1
39,66:1
39,67:1
40,1:2
40,2:2
40,6:2
40,7:2
40,8:3
40,9:1
40,10:1
40,11:1
40,12:1
40,13:1
40,14:3
40,15:2
40,16:4
40,17:2
40,18:3
40,19:2
40,22:2
40,23:4
40,24:4
40,25:2
40,28:2
40,29:1
40,30:2
40,32:4
40,33:4
40,34:4
40,36:2
40,37:2
40,38:1
40,41:2
40,42:2
40,46:3
40,47:3
40,48:4
40,49:2
40,50:4
40,51:4
40,54:1
40,56:4
40,57:4
40,59:4
40,60:2
40,64:4
40,65:1
40,66:1
40,67:1
41,8:1
41,14:1
41,16:2
41,18:1
41,23:2
41,24:2
41,32:2
41,33:2
41,34:2
41,46:1
41,47:1
41,48:2
41,50:2
41,51:2
41,52:2
41,56:2
41,57:2
41,59:2
41,64:2
42,8:1
42,14:1
42,16:2
42,18:1
42,23:2
42,24:2
42,32:2
42,33:2
42,34:2
42,46:1
42,47:1
42,48:2
42,50:2
42,51:2
42,52:2
42,56:2
42,57:2
42,59:2
42,64:2
43,1:2
43,2:2
43,6:2
43,7:2
43,8:3
43,9:1
43,10:1
43,11:1
43,12:1
43,13:1
43,14:3
43,15:2
43,16:4
43,17:2
43,18:3
43,19:2
43,22:2
43,23:4
43,24:4
43,25:2
43,28:2
43,29:1
43,30:2
43,32:4
43,33:4
43,34:4
43,36:2
43,37:2
43,38:1
43,41:2
43,42:2
43,44:2
43,54:1
43,56:4
43,57:4
43,59:4
43,60:2
43,64:4
43,65:1
43,66:1
43,67:1
44,8:1
44,14:1
44,16:2
44,18:1
44,23:2
44,24:2
44,32:2
44,33:2
44,34:2
44,46:1
44,47:1
44,48:2
44,50:2
44,51:2
44,56:2
44,57:2
44,59:2
44,64:2
45,1:2
45,2:2
45,6:2
45,7:2
45,8:3
45,9:1
45,10:1
45,11:1
45,12:1
45,13:1
45,14:3
45,15:2
45,16:4
45,17:2
45,18:3
45,19:2
45,22:2
45,23:4
45,24:4
45,25:2
45,28:2
45,29:1
45,30:2
45,32:4
45,33:4
45,34:4
45,36:2
45,37:2
45,38:1
45,41:2
45,42:2
45,44:2
45,54:1
45,56:4
45,57:4
45,59:4
45,60:2
45,64:4
45,65:1
45,66:1
45,67:1
46,16:1
46,23:1
46,24:1
46,32:1
46,33:1
46,34:1
46,56:1
46,57:1
46,59:1
46,64:1
47,16:1
47,23:1
47,24:1
47,32:1
47,33:1
47,34:1
47,56:1
47,57:1
47,59:1
47,64:1
49,8:1
49,14:1
49,16:2
49,18:1
49,23:2
49,24:2
49,32:2
49,33:2
49,34:2
49,46:1
49,47:1
49,48:2
49,56:2
49,57:2
49,59:2
49,64:2
54,1:1
54,2:1
54,6:1
54,7:1
54,8:2
54,14:2
54,15:1
54,16:3
54,17:1
54,18:2
54,19:1
54,22:1
54,23:3
54,24:3
54,25:1
54,28:1
54,30:1
54,32:3
54,33:3
54,34:3
54,36:1
54,37:1
54,41:1
54,42:1
54,44:1
54,46:2
54,47:2
54,48:3
54,49:1
54,50:3
54,51:3
54,52:3
54,53:3
54,69:1
54,70:3
54,71:3
55,1:2
55,2:2
55,6:2
55,7:2
55,8:3
55,9:1
55,10:1
55,11:1
55,12:1
55,13:1
55,14:3
55,15:2
55,16:4
55,17:2
55,18:3
55,19:2
55,22:2
55,23:4
55,24:4
55,25:2
55,28:2
55,29:1
55,30:2
55,32:4
55,33:4
55,34:4
55,36:2
55,37:2
55,38:1
55,41:2
55,42:2
55,44:2
55,46:3
55,47:3
55,48:4
55,49:2
55,50:4
55,51:4
55,52:4
55,53:4
55,54:1
55,69:2
55,70:4
55,71:4
58,1:2
58,2:2
58,6:2
58,7:2
58,8:3
58,9:1
58,10:1
58,11:1
58,12:1
58,13:1
58,14:3
58,15:2
58,16:4
58,17:2
58,18:3
58,19:2
58,22:2
58,23:4
58,24:4
58,25:2
58,28:2
58,29:1
58,30:2
58,32:4
58,33:4
58,34:4
58,36:2
58,37:2
58,38:1
58,41:2
58,42:2
58,44:2
58,46:3
58,47:3
58,48:4
58,49:2
58,50:4
58,51:4
58,52:4
58,53:4
58,54:1
58,56:4
58,57:4
58,59:4
58,60:2
58,64:4
58,65:1
58,66:1
58,69:2
58,70:4
58,71:4
60,8:1
60,14:1
60,16:2
60,18:1
60,23:2
60,24:2
60,32:2
60,33:2
60,34:2
60,46:1
60,47:1
60,48:2
60,50:2
60,51:2
60,52:2
60,53:2
60,56:2
60,57:2
60,59:2
60,64:2
60,70:2
60,71:2
61,1:2
61,2:2
61,6:2
61,7:2
61,8:3
61,9:1
61,10:1
61,11:1
61,12:1
61,13:1
61,14:3
61,15:2
61,16:4
61,17:2
61,18:3
61,19:2
61,22:2
61,23:4
61,24:4
61,25:2
61,28:2
61,29:1
61,30:2
61,32:4
61,33:4
61,34:4
61,36:2
61,37:2
61,38:1
61,41:2
61,42:2
61,44:2
61,46:3
61,47:3
61,48:4
61,49:2
61,50:4
61,51:4
61,52:4
61,53:4
61,54:1
61,56:4
61,57:4
61,59:4
61,60:2
61,64:4
61,65:1
61,66:1
61,69:2
61,70:4
61,71:4
62,1:2
62,2:2
62,6:2
62,7:2
62,8:3
62,9:1
62,10:1
62,11:1
62,12:1
62,13:1
62,14:3
62,15:2
62,16:4
62,17:2
62,18:3
62,19:2
62,22:2
62,23:4
62,24:4
62,25:2
62,28:2
62,29:1
62,30:2
62,32:4
62,33:4
62,34:4
62,36:2
62,37:2
62,38:1
62,41:2
62,42:2
62,44:2
62,46:3
62,47:3
62,48:4
62,49:2
62,50:4
62,51:4
62,52:4
62,53:4
62,54:1
62,56:4
62,57:4
62,59:4
62,60:2
62,64:4
62,65:1
62,66:1
62,69:2
62,70:4
62,71:4
63,1:2
63,2:2
63,6:2
63,7:2
63,8:3
63,9:1
63,10:1
63,11:1
63,12:1
63,13:1
63,14:3
63,15:2
63,16:4
63,17:2
63,18:3
63,19:2
63,22:2
63,23:4
63,24:4
63,25:2
63,28:2
63,29:1
63,30:2
63,32:4
63,33:4
63,34:4
63,36:2
63,37:2
63,38:1
63,41:2
63,42:2
63,44:2
63,46:3
63,47:3
63,48:4
63,49:2
63,50:4
63,51:4
63,52:4
63,53:4
63,54:1
63,56:4
63,57:4
63,59:4
63,60:2
63,64:4
63,65:1
63,66:1
63,69:2
63,70:4
63,71:4
65,1:1
65,2:1
65,6:1
65,7:1
65,8:2
65,14:2
65,15:1
65,16:3
65,17:1
65,18:2
65,19:1
65,22:1
65,23:3
65,24:3
65,25:1
65,28:1
65,30:1
65,32:3
65,33:3
65,34:3
65,36:1
65,37:1
65,41:1
65,42:1
65,44:1
65,46:2
65,47:2
65,48:3
65,49:1
65,50:3
65,51:3
65,52:3
65,53:3
65,56:3
65,57:3
65,59:3
65,60:1
65,64:3
65,69:1
65,70:3
65,71:3
66,1:1
66,2:1
66,6:1
66,7:1
66,8:2
66,14:2
66,15:1
66,16:3
66,17:1
66,18:2
66,19:1
66,22:1
66,23:3
66,24:3
66,25:1
66,28:1
66,30:1
66,32:3
66,33:3
66,34:3
66,36:1
66,37:1
66,41:1
66,42:1
66,44:1
66,46:2
66,47:2
66,48:3
66,49:1
66,50:3
66,51:3
66,52:3
66,53:3
66,56:3
66,57:3
66,59:3
66,60:1
66,64:3
66,69:1
66,70:3
66,71:3
67,1:1
67,2:1
67,6:1
67,7:1
67,8:2
67,14:2
67,15:1
67,16:3
67,17:1
67,18:2
67,19:1
67,22:1
67,23:3
67,24:3
67,25:1
67,28:1
67,30:1
67,32:3
67,33:3
67,34:3
67,36:1
67,37:1
67,41:1
67,42:1
67,44:1
67,46:2
67,47:2
67,48:3
67,49:1
67,50:3
67,51:3
67,52:3
67,53:3
67,56:3
67,57:3
67,59:3
67,60:1
67,64:3
67,69:1
67,70:3
67,71:3
68,1:2
68,2:2
68,6:2
68,7:2
68,8:3
68,9:1
68,10:1
68,11:1
68,12:1
68,13:1
68,14:3
68,15:2
68,16:4
68,17:2
68,18:3
68,19:2
68,22:2
68,23:4
68,24:4
68,25:2
68,28:2
68,29:1
68,30:2
68,32:4
68,33:4
68,34:4
68,36:2
68,37:2
68,38:1
68,41:2
68,42:2
68,44:2
68,46:3
68,47:3
68,48:4
68,49:2
68,50:4
68,51:4
68,52:4
68,53:4
68,54:1
68,56:4
68,57:4
68,59:4
68,60:2
68,64:4
68,65:1
68,66:1
68,67:1
68,69:2
68,70:4
68,71:4
68,73:4
68,74:2
68,76:2
68,77:2
69,8:1
69,14:1
69,16:2
69,18:1
69,23:2
69,24:2
69,32:2
69,33:2
69,34:2
69,46:1
69,47:1
69,48:2
69,50:2
69,51:2
69,52:2
69,53:2
69,56:2
69,57:2
69,59:2
69,64:2
69,70:2
69,71:2
69,73:2
72,1:2
72,2:2
72,6:2
72,7:2
72,8:3
72,9:1
72,10:1
72,11:1
72,12:1
72,13:1
72,14:3
72,15:2
72,16:4
72,17:2
72,18:3
72,19:2
72,22:2
72,23:4
72,24:4
72,25:2
72,28:2
72,29:1
72,30:2
72,32:4
72,33:4
72,34:4
72,36:2
72,37:2
72,38:1
72,41:2
72,42:2
72,44:2
72,46:3
72,47:3
72,48:4
72,49:2
72,50:4
72,51:4
72,52:4
72,53:4
72,54:1
72,56:4
72,57:4
72,59:4
72,60:2
72,64:4
72,65:1
72,66:1
72,67:1
72,69:2
72,70:4
72,71:4
72,73:4
72,74:2
72,76:2
72,77:2
74,8:1
74,14:1
74,16:2
74,18:1
74,23:2
74,24:2
74,32:2
74,33:2
74,34:2
74,46:1
74,47:1
74,48:2
74,50:2
74,51:2
74,52:2
74,53:2
74,56:2
74,57:2
74,59:2
74,64:2
74,70:2
74,71:2
74,73:2
75,1:2
75,2:2
75,6:2
75,7:2
75,8:3
75,9:1
75,10:1
75,11:1
75,12:1
75,13:1
75,14:3
75,15:2
75,16:4
75,17:2
75,18:3
75,19:2
75,22:2
75,23:4
75,24:4
75,25:2
75,28:2
75,29:1
75,30:2
75,32:4
75,33:4
75,34:4
75,36:2
75,37:2
75,38:1
75,41:2
75,42:2
75,44:2
75,46:3
75,47:3
75,48:4
75,49:2
75,50:4
75,51:4
75,52:4
75,53:4
75,54:1
75,56:4
75,57:4
75,59:4
75,60:2
75,64:4
75,65:1
75,66:1
75,67:1
75,69:2
75,70:4
75,71:4
75,73:4
75,74:2
75,76:2
76,8:1
76,14:1
76,16:2
76,18:1
76,23:2
76,24:2
76,32:2
76,33:2
76,34:2
76,46:1
76,47:1
76,48:2
76,50:2
76,51:2
76,52:2
76,53:2
76,56:2
76,57:2
76,59:2
76,64:2
76,70:2
76,71:2
76,73:2
76,79:2
77,8:1
77,14:1
77,16:2
77,18:1
77,23:2
77,24:2
77,32:2
77,33:2
77,34:2
77,46:1
77,47:1
77,48:2
77,50:2
77,51:2
77,52:2
77,53:2
77,56:2
77,57:2
77,59:2
77,64:2
77,70:2
77,71:2
77,73:2
78,8:1
78,14:1
78,16:2
78,18:1
78,23:2
78,24:2
78,32:2
78,33:2
78,34:2
78,46:1
78,47:1
78,48:2
78,50:2
78,51:2
78,52:2
78,53:2
78,56:2
78,57:2
78,59:2
78,64:2
78,70:2
78,71:2
78,73:2
80,1:2
80,2:2
80,6:2
80,7:2
80,8:3
80,9:1
80,10:1
80,11:1
80,12:1
80,13:1
80,14:3
80,15:2
80,16:4
80,17:2
80,18:3
80,19:2
80,22:2
80,23:4
80,24:4
80,25:2
80,28:2
80,29:1
80,30:2
80,32:4
80,33:4
80,34:4
80,36:2
80,37:2
80,38:1
80,41:2
80,42:2
80,44:2
80,46:3
80,47:3
80,48:4
80,49:2
80,50:4
80,51:4
80,52:4
80,53:4
80,54:1
80,56:4
80,57:4
80,59:4
80,60:2
80,64:4
80,65:1
80,66:1
80,67:1
80,69:2
80,70:4
80,71:4
80,73:4
80,74:2
80,76:2
80,77:2
80,78:2
80,79:4
81,1:1
81,2:1
81,6:1
81,7:1
81,8:2
81,14:2
81,15:1
81,16:3
81,17:1
81,18:2
81,19:1
81,22:1
81,23:3
81,24:3
81,25:1
81,28:1
81,30:1
81,32:3
81,33:3
81,34:3
81,36:1
81,37:1
81,41:1
81,42:1
81,44:1
81,46:2
81,47:2
81,48:3
81,49:1
81,50:3
81,51:3
81,52:3
81,53:3
81,56:3
81,57:3
81,59:3
81,60:1
81,64:3
81,69:1
81,70:3
81,71:3
81,73:3
81,74:1
81,76:1
81,77:1
81,78:1
81,79:3
82,1:1
82,2:1
82,6:1
82,7:1
82,8:2
82,14:2
82,15:1
82,16:3
82,17:1
82,18:2
82,19:1
82,22:1
82,23:3
82,24:3
82,25:1
82,28:1
82,30:1
82,32:3
82,33:3
82,34:3
82,36:1
82,37:1
82,41:1
82,42:1
82,44:1
82,46:2
82,47:2
82,48:3
82,49:1
82,50:3
82,51:3
82,52:3
82,53:3
82,56:3
82,57:3
82,59:3
82,60:1
82,64:3
82,69:1
82,70:3
82,71:3
82,73:3
82,74:1
82,76:1
82,77:1
82,78:1
82,79:3
82,85:3
83,1:1
83,2:1
83,6:1
83,7:1
83,8:2
83,14:2
83,15:1
83,16:3
83,17:1
83,18:2
83,19:1
83,22:1
83,23:3
83,24:3
83,25:1
83,28:1
83,30:1
83,32:3
83,33:3
83,34:3
83,36:1
83,37:1
83,41:1
83,42:1
83,44:1
83,46:2
83,47:2
83,48:3
83,49:1
83,50:3
83,51:3
83,52:3
83,53:3
83,56:3
83,57:3
83,59:3
83,60:1
83,64:3
83,69:1
83,70:3
83,71:3
83,73:3
83,74:1
83,76:1
83,77:1
83,78:1
83,79:3
83,85:3
84,1:1
84,2:1
84,6:1
84,7:1
84,8:2
84,14:2
84,15:1
84,16:3
84,17:1
84,18:2
84,19:1
84,22:1
84,23:3
84,24:3
84,25:1
84,28:1
84,30:1
84,32:3
84,33:3
84,34:3
84,36:1
84,37:1
84,41:1
84,42:1
84,44:1
84,46:2
84,47:2
84,48:3
84,49:1
84,50:3
84,51:3
84,52:3
84,53:3
84,56:3
84,57:3
84,59:3
84,60:1
84,64:3
84,69:1
84,70:3
84,71:3
84,73:3
84,74:1
84,76:1
84,77:1
84,78:1
84,79:3
84,85:3
86,1:2
86,2:2
86,6:2
86,7:2
86,8:3
86,9:1
86,10:1
86,11:1
86,12:1
86,13:1
86,14:3
86,15:2
86,16:4
86,17:2
86,18:3
86,19:2
86,22:2
86,23:4
86,24:4
86,25:2
86,28:2
86,29:1
86,30:2
86,32:4
86,33:4
86,34:4
86,36:2
86,37:2
86,38:1
86,41:2
86,42:2
86,44:2
86,46:3
86,47:3
86,48:4
86,49:2
86,50:4
86,51:4
86,52:4
86,53:4
86,54:1
86,56:4
86,57:4
86,59:4
86,60:2
86,64:4
86,65:1
86,66:1
86,67:1
86,69:2
86,70:4
86,71:4
86,73:4
86,74:2
86,76:2
86,77:2
86,78:2
86,79:4
86,81:1
86,82:1
86,83:1
86,84:1
86,85:4
87,1:2
87,2:2
87,6:2
87,7:2
87,8:3
87,9:1
87,10:1
87,11:1
87,12:1
87,13:1
87,14:3
87,15:2
87,16:4
87,17:2
87,18:3
87,19:2
87,22:2
87,23:4
87,24:4
87,25:2
87,28:2
87,29:1
87,30:2
87,32:4
87,33:4
87,34:4
87,36:2
87,37:2
87,38:1
87,41:2
87,42:2
87,44:2
87,46:3
87,47:3
87,48:4
87,49:2
87,50:4
87,51:4
87,52:4
87,53:4
87,54:1
87,56:4
87,57:4
87,59:4
87,60:2
87,64:4
87,65:1
87,66:1
87,67:1
87,69:2
87,70:4
87,71:4
87,73:4
87,74:2
87,76:2
87,77:2
87,78:2
87,79:4
87,81:1
87,82:1
87,83:1
87,84:1
87,85:4
88,8:1
88,14:1
88,16:2
88,18:1
88,23:2
88,24:2
88,32:2
88,33:2
88,34:2
88,46:1
88,47:1
88,48:2
88,50:2
88,51:2
88,52:2
88,53:2
88,56:2
88,57:2
88,59:2
88,64:2
88,70:2
88,71:2
88,73:2
88,79:2
88,85:2
88,89:1
89,16:1
89,23:1
89,24:1
89,32:1
89,33:1
89,34:1
89,48:1
89,50:1
89,51:1
89,52:1
89,53:1
89,56:1
89,57:1
89,59:1
89,64:1
89,70:1
89,71:1
89,73:1
89,79:1
89,85:1

<end>

<optimal SALBP-1 value>
40


<rand seed>
467321153

